Function: get_partitions took 1.8835067749023438e-05 seconds
Function: map_flows_partitions took 2.8133392333984375e-05 seconds
Building model with:
21 devices, 3 partitions and 20 flows
Using license file /home/anup/gurobi.lic
Academic license - for non-commercial use only
Function: MIP.add_frac_mem_var took 0.0006253719329833984 seconds
Function: MIP.add_coverage_constraints took 0.0009961128234863281 seconds
Function: MIP.add_accuracy_constraints took 0.0012080669403076172 seconds
Function: MIP.add_capacity_constraints took 0.002877473831176758 seconds
Changed value of parameter TimeLimit to 120.0
   Prev: inf  Min: 0.0  Max: inf  Default: inf
Changed value of parameter NonConvex to 2
   Prev: -1  Min: -1  Max: 2  Default: -1
--------------------------------------------------
Starting model update
Model update took: 8.535385131835938e-05 s
--------------------------------------------------
Starting model optimize
Gurobi Optimizer version 9.0.0 build v9.0.0rc2 (linux64)
Optimize a model with 190 rows, 200 columns and 547 nonzeros
Model fingerprint: 0xed34da10
Model has 3 quadratic constraints
Model has 3 general constraints
Variable types: 198 continuous, 2 integer (0 binary)
Coefficient statistics:
  Matrix range     [1e-04, 2e+03]
  QMatrix range    [1e+00, 1e+00]
  QLMatrix range   [1e+00, 1e+00]
  Objective range  [1e+00, 1e+00]
  Bounds range     [1e+00, 3e+04]
  RHS range        [1e+00, 2e+01]

---------------------------------------------------------------------------
Multi-objectives: starting optimization with 2 objectives ... 
---------------------------------------------------------------------------

Multi-objectives: applying initial presolve ...
---------------------------------------------------------------------------

Presolve removed 99 rows and 99 columns
Presolve time: 0.00s
Presolved: 103 rows and 102 columns
---------------------------------------------------------------------------

Multi-objectives: optimize objective 1 (ns) ...
---------------------------------------------------------------------------

Presolve removed 84 rows and 87 columns
Presolve time: 0.00s
Presolved: 31 rows, 16 columns, 79 nonzeros
Presolved model has 1 SOS constraint(s)
Presolved model has 3 bilinear constraint(s)
Variable types: 11 continuous, 5 integer (3 binary)

Root relaxation: objective 1.020408e+01, 11 iterations, 0.00 seconds

    Nodes    |    Current Node    |     Objective Bounds      |     Work
 Expl Unexpl |  Obj  Depth IntInf | Incumbent    BestBd   Gap | It/Node Time

     0     0   10.20408    0    1          -   10.20408      -     -    0s
     0     0   10.20408    0    1          -   10.20408      -     -    0s
     0     0   10.20408    0    1          -   10.20408      -     -    0s
H    0     0                      20.9028729   10.20408  51.2%     -    0s
     0     1   10.74108    0    4   20.90287   10.74108  48.6%     -    0s
*    2     1               2      11.4285714   11.42857  0.00%   3.5    0s

Cutting planes:
  RLT: 1

Explored 4 nodes (25 simplex iterations) in 0.01 seconds
Thread count was 8 (of 8 available processors)

Solution count 2: 11.4286 20.9029 

Optimal solution found (tolerance 1.00e-04)
Best objective 1.142857142857e+01, best bound 1.142857142857e+01, gap 0.0000%
---------------------------------------------------------------------------

Multi-objectives: optimize objective 2 (res) ...
---------------------------------------------------------------------------


Loaded user MIP start with objective 312.177

Presolve removed 88 rows and 88 columns
Presolve time: 0.00s
Presolved: 28 rows, 14 columns, 76 nonzeros
Presolved model has 3 bilinear constraint(s)
Variable types: 11 continuous, 3 integer (1 binary)

Root relaxation: objective 2.406530e+02, 8 iterations, 0.00 seconds

    Nodes    |    Current Node    |     Objective Bounds      |     Work
 Expl Unexpl |  Obj  Depth IntInf | Incumbent    BestBd   Gap | It/Node Time

     0     0  240.65301    0    1  312.17673  240.65301  22.9%     -    0s
     0     0  240.92029    0    1  312.17673  240.92029  22.8%     -    0s
H    0     0                     240.9661139  240.92029  0.02%     -    0s
*    0     0               0     240.9661018  240.96610  0.00%     -    0s

Explored 1 nodes (8 simplex iterations) in 0.01 seconds
Thread count was 8 (of 8 available processors)

Solution count 2: 240.966 312.177 

Optimal solution found (tolerance 1.00e-04)
Best objective 2.409661017666e+02, best bound 2.409661017666e+02, gap 0.0000%

---------------------------------------------------------------------------
Multi-objectives: solved in 0.01 seconds, solution count 3

Model optimize took: 0.013517379760742188 seconds
--------------------------------------------------

Solution quality statistics for model Netmon :
  Maximum violation:
    Bound       : 0.00000000e+00
    Constraint  : 4.32808148e-07
    Integrality : 0.00000000e+00

Throughput: 87.49124322019418 Mpps, ns per packet: 11.429715285714288
Resources: 240.96610176662568
Used Cores: 7.0, Total CPUS: 1, Switch Memory: 8123.887759838689

Sketch (0) (cm: eps0: 6.25e-06, del0: 0.05, min_mem: 1698.9296875)
Par: 1, Rows: 1
(0.080,18)    (0.080,3)    (0.080,8)    (0.080,14)    (0.080,19)    (0.080,4)    (0.080,9)    (0.080,15)    (0.841,20)    (0.080,5)    (0.080,10)    (0.080,0)    (0.080,6)    (0.080,11)    (0.080,16)    (0.080,1)    (0.080,7)    (0.080,12)    (0.080,17)    (0.080,2)    (0.080,13)    
Total frac: 2.435
Par: 2, Rows: 1
(0.080,12)    (0.080,9)    (0.080,2)    (0.080,15)    (0.080,5)    (0.080,18)    (0.080,8)    (0.080,14)    (0.080,11)    (0.080,4)    (0.080,1)    (0.080,7)    (0.841,20)    (0.080,17)    (0.080,10)    (0.080,0)    (0.080,13)    (0.080,6)    (0.080,3)    (0.080,16)    (0.080,19)    
Total frac: 2.435
Par: 3, Rows: 1
(0.080,11)    (0.080,16)    (0.080,6)    (0.080,7)    (0.080,1)    (0.080,12)    (0.080,17)    (0.080,2)    (0.080,3)    (0.080,13)    (0.080,8)    (0.080,18)    (0.080,19)    (0.080,4)    (0.080,14)    (0.080,15)    (0.080,9)    (0.841,20)    (0.080,5)    (0.080,0)    (0.080,10)    
Total frac: 2.435

Device (0) P4_0:
Rows total: 0.2390884042939148
Mem total: 406.1943879919344
Throughput: 148.0

Device (1) P4_1:
Rows total: 0.2390884042939148
Mem total: 406.1943879919344
Throughput: 148.0

Device (2) P4_2:
Rows total: 0.2390884042939148
Mem total: 406.1943879919344
Throughput: 148.0

Device (3) P4_3:
Rows total: 0.2390884042939148
Mem total: 406.1943879919344
Throughput: 148.0

Device (4) P4_4:
Rows total: 0.2390884042939148
Mem total: 406.1943879919344
Throughput: 148.0

Device (5) P4_5:
Rows total: 0.2390884042939148
Mem total: 406.1943879919344
Throughput: 148.0

Device (6) P4_6:
Rows total: 0.2390884042939148
Mem total: 406.1943879919344
Throughput: 148.0

Device (7) P4_7:
Rows total: 0.2390884042939148
Mem total: 406.1943879919344
Throughput: 148.0

Device (8) P4_8:
Rows total: 0.2390884042939148
Mem total: 406.1943879919344
Throughput: 148.0

Device (9) P4_9:
Rows total: 0.2390884042939148
Mem total: 406.1943879919344
Throughput: 148.0

Device (10) P4_10:
Rows total: 0.2390884042939148
Mem total: 406.1943879919344
Throughput: 148.0

Device (11) P4_11:
Rows total: 0.2390884042939148
Mem total: 406.1943879919344
Throughput: 148.0

Device (12) P4_12:
Rows total: 0.2390884042939148
Mem total: 406.1943879919344
Throughput: 148.0

Device (13) P4_13:
Rows total: 0.2390884042939148
Mem total: 406.1943879919344
Throughput: 148.0

Device (14) P4_14:
Rows total: 0.2390884042939148
Mem total: 406.1943879919344
Throughput: 148.0

Device (15) P4_15:
Rows total: 0.2390884042939148
Mem total: 406.1943879919344
Throughput: 148.0

Device (16) P4_16:
Rows total: 0.2390884042939148
Mem total: 406.1943879919344
Throughput: 148.0

Device (17) P4_17:
Rows total: 0.2390884042939148
Mem total: 406.1943879919344
Throughput: 148.0

Device (18) P4_18:
Rows total: 0.2390884042939148
Mem total: 406.1943879919344
Throughput: 148.0

Device (19) P4_19:
Rows total: 0.2390884042939148
Mem total: 406.1943879919344
Throughput: 148.0

Device (20) CPU_1:
cores_sketch: 2.0, cores_dpdk: 5.0
Rows total: 2.5218231914121705
Mem total: 4284.400286516131
Throughput: 87.49124322019418
--------------------------------------------------
Function: MIP.solve took 0.034026145935058594 seconds
Function: solve took 0.034537315368652344 seconds
